************************************************************************
file with basedata            : mm35_.bas
initial value random generator: 317177163
************************************************************************
projects                      :  1
jobs (incl. supersource/sink ):  12
horizon                       :  90
RESOURCES
  - renewable                 :  2   R
  - nonrenewable              :  2   N
  - doubly constrained        :  0   D
************************************************************************
PROJECT INFORMATION:
pronr.  #jobs rel.date duedate tardcost  MPM-Time
    1     10      0       20        4       20
************************************************************************
PRECEDENCE RELATIONS:
jobnr.    #modes  #successors   successors
   0        1          3           1   2   3
   1        3          1           6
   2        3          3           4   8   9
   3        3          3           5   6   8
   4        3          1           7
   5        3          1           9
   6        3          2           7   9
   7        3          1          10
   8        3          1          11
   9        3          1          11
  10        3          1          11
  11        1          0        
************************************************************************
REQUESTS/DURATIONS:
jobnr. mode duration  R 1  R 2  R 3  R 4  E(W 1)  E(W 2)
------------------------------------------------------------------------
  0      1     0       0    0    0    0     0       0
  1      1     1       9    9    0   10    18      10
  2      1     1       7    8    0    3    15       3
  3      1     6       6    6    2    0    72      12
  4      1     3       8    5   10    0    39      30
  5      1     8       5    7    0    3    96      24
  6      1     3       7    9    7    0    48      21
  7      1     9       9    9    0    6    162      54
  8      1     2       6   10    0    9    32      18
  9      1     2      10    6    7    0    32      14
 10      1     2       6    8    0    6    28      12
 11      1     0       0    0    0    0     0       0
************************************************************************
RESOURCEAVAILABILITIES:
  R 1  R 2
   21   76
************************************************************************
RESOURCE LIMITS:
jobnr.  l(R 1)  u(R 1)  l(R 2)  u(R 2)
------------------------------------------------------------------------
  0        0       0       0       0
  1       10      18       5      10
  2        8      15       2       3
  3        6      12       1       2
  4        7      13       5      10
  5        7      12       2       3
  6        9      16       4       7
  7       10      18       3       6
  8        8      16       5       9
  9        8      16       4       7
 10        7      14       3       6
 11        0       0       0       0
************************************************************************
SCENARIOS:
------------------------------------------------------------------------
RESOURCE k = 1
s = 1: (0, 18, 17, 71, 27, 111, 26, 138, 22, 35, 32, 0)
s = 2: (0, 23, 13, 88, 26, 108, 53, 254, 27, 46, 29, 0)
s = 3: (0, 21, 11, 74, 50, 93, 51, 192, 27, 28, 30, 0)
s = 4: (0, 12, 11, 69, 34, 112, 63, 214, 35, 37, 18, 0)
s = 5: (0, 20, 11, 100, 48, 78, 32, 228, 30, 35, 38, 0)
s = 6: (0, 14, 20, 75, 35, 56, 53, 154, 27, 27, 27, 0)
s = 7: (0, 17, 17, 61, 30, 79, 40, 220, 28, 24, 21, 0)
s = 8: (0, 21, 17, 61, 51, 101, 33, 159, 19, 27, 25, 0)
s = 9: (0, 22, 9, 70, 21, 105, 55, 233, 42, 20, 33, 0)
s = 10: (0, 23, 17, 76, 42, 60, 38, 108, 23, 24, 29, 0)
s = 11: (0, 20, 16, 84, 49, 88, 54, 166, 30, 20, 30, 0)
s = 12: (0, 19, 14, 64, 32, 68, 36, 168, 38, 40, 17, 0)
s = 13: (0, 18, 17, 105, 30, 108, 31, 185, 28, 36, 16, 0)
s = 14: (0, 14, 14, 63, 59, 160, 38, 173, 43, 38, 23, 0)
s = 15: (0, 18, 20, 55, 45, 136, 26, 141, 22, 39, 34, 0)
s = 16: (0, 23, 11, 69, 30, 114, 46, 204, 20, 44, 33, 0)
s = 17: (0, 16, 11, 41, 56, 102, 36, 164, 26, 32, 20, 0)
s = 18: (0, 18, 12, 109, 52, 108, 44, 172, 18, 21, 21, 0)
s = 19: (0, 17, 24, 82, 30, 76, 62, 139, 30, 26, 26, 0)
s = 20: (0, 33, 21, 62, 52, 100, 67, 113, 22, 43, 17, 0)
s = 21: (0, 16, 19, 56, 57, 141, 52, 124, 24, 40, 25, 0)
s = 22: (0, 13, 17, 57, 30, 92, 58, 184, 55, 40, 22, 0)
s = 23: (0, 14, 16, 128, 34, 161, 47, 122, 44, 20, 22, 0)
s = 24: (0, 20, 10, 76, 68, 122, 48, 284, 30, 42, 25, 0)
s = 25: (0, 21, 19, 57, 43, 102, 32, 177, 36, 29, 20, 0)
s = 26: (0, 10, 17, 42, 24, 105, 37, 176, 26, 22, 23, 0)
s = 27: (0, 24, 13, 82, 49, 59, 43, 254, 46, 19, 42, 0)
s = 28: (0, 13, 18, 63, 33, 109, 39, 111, 25, 20, 21, 0)
s = 29: (0, 15, 17, 65, 50, 61, 53, 118, 39, 26, 18, 0)
s = 30: (0, 19, 14, 55, 39, 76, 43, 199, 51, 24, 25, 0)
s = 31: (0, 26, 22, 92, 61, 71, 73, 229, 43, 28, 31, 0)
s = 32: (0, 18, 10, 84, 33, 109, 34, 218, 24, 36, 22, 0)
s = 33: (0, 16, 12, 60, 40, 80, 30, 103, 36, 32, 30, 0)
s = 34: (0, 12, 14, 105, 34, 86, 55, 132, 29, 38, 33, 0)
s = 35: (0, 15, 17, 120, 32, 87, 61, 119, 27, 25, 17, 0)
s = 36: (0, 15, 20, 79, 45, 85, 51, 154, 26, 27, 26, 0)
s = 37: (0, 13, 23, 62, 39, 65, 69, 186, 27, 31, 30, 0)
s = 38: (0, 21, 17, 57, 56, 96, 61, 239, 28, 26, 38, 0)
s = 39: (0, 18, 10, 51, 56, 96, 51, 104, 44, 43, 20, 0)
s = 40: (0, 24, 11, 77, 29, 73, 36, 134, 30, 39, 25, 0)
s = 41: (0, 23, 10, 48, 34, 102, 67, 135, 29, 34, 25, 0)
s = 42: (0, 24, 15, 68, 40, 144, 74, 120, 31, 28, 33, 0)
s = 43: (0, 19, 12, 72, 50, 121, 52, 169, 31, 32, 25, 0)
s = 44: (0, 18, 19, 52, 38, 68, 66, 144, 56, 17, 47, 0)
s = 45: (0, 12, 15, 44, 62, 85, 37, 82, 40, 28, 30, 0)
s = 46: (0, 19, 26, 52, 50, 81, 61, 179, 39, 22, 15, 0)
s = 47: (0, 17, 15, 76, 29, 83, 62, 208, 35, 27, 32, 0)
s = 48: (0, 26, 23, 57, 55, 66, 48, 189, 39, 45, 24, 0)
s = 49: (0, 12, 19, 67, 42, 129, 36, 205, 22, 35, 21, 0)
s = 50: (0, 25, 18, 77, 27, 77, 39, 181, 39, 25, 21, 0)
s = 51: (0, 19, 12, 94, 29, 79, 46, 185, 51, 41, 16, 0)
s = 52: (0, 17, 18, 116, 59, 65, 39, 139, 33, 40, 21, 0)
s = 53: (0, 14, 16, 64, 45, 70, 37, 197, 44, 32, 37, 0)
s = 54: (0, 20, 20, 82, 41, 80, 51, 203, 40, 28, 21, 0)
s = 55: (0, 21, 16, 99, 50, 93, 64, 215, 29, 26, 26, 0)
s = 56: (0, 18, 16, 40, 25, 128, 57, 150, 19, 19, 25, 0)
s = 57: (0, 16, 20, 67, 32, 100, 29, 192, 28, 42, 21, 0)
s = 58: (0, 18, 23, 132, 57, 138, 41, 199, 41, 33, 21, 0)
s = 59: (0, 18, 20, 60, 40, 85, 51, 132, 28, 18, 33, 0)
s = 60: (0, 16, 16, 108, 51, 106, 35, 117, 39, 22, 43, 0)
s = 61: (0, 17, 10, 64, 35, 102, 64, 122, 27, 46, 21, 0)
s = 62: (0, 13, 21, 92, 34, 111, 80, 108, 42, 34, 24, 0)
s = 63: (0, 13, 14, 52, 27, 64, 43, 95, 53, 20, 24, 0)
s = 64: (0, 31, 10, 105, 43, 118, 58, 163, 43, 26, 46, 0)
s = 65: (0, 11, 14, 78, 23, 163, 43, 157, 48, 24, 21, 0)
s = 66: (0, 16, 12, 69, 44, 175, 43, 174, 35, 33, 20, 0)
s = 67: (0, 14, 18, 118, 31, 103, 45, 97, 36, 29, 23, 0)
s = 68: (0, 17, 18, 116, 33, 105, 57, 145, 32, 30, 50, 0)
s = 69: (0, 17, 21, 44, 45, 105, 56, 145, 38, 20, 35, 0)
s = 70: (0, 11, 24, 86, 35, 112, 30, 168, 37, 38, 31, 0)
s = 71: (0, 28, 21, 76, 42, 80, 61, 267, 29, 24, 26, 0)
s = 72: (0, 26, 12, 72, 30, 155, 68, 248, 28, 28, 21, 0)
s = 73: (0, 21, 25, 47, 43, 70, 50, 216, 27, 48, 43, 0)
s = 74: (0, 23, 17, 76, 33, 59, 41, 257, 21, 37, 34, 0)
s = 75: (0, 20, 14, 73, 37, 74, 39, 245, 27, 22, 32, 0)
s = 76: (0, 17, 21, 48, 33, 87, 29, 118, 22, 50, 17, 0)
s = 77: (0, 14, 15, 57, 32, 109, 51, 203, 31, 27, 25, 0)
s = 78: (0, 14, 22, 101, 55, 80, 35, 237, 43, 29, 38, 0)
s = 79: (0, 14, 11, 86, 34, 82, 34, 131, 34, 47, 29, 0)
s = 80: (0, 16, 11, 67, 37, 102, 38, 161, 27, 42, 20, 0)
s = 81: (0, 13, 19, 58, 38, 105, 42, 239, 29, 52, 23, 0)
s = 82: (0, 20, 11, 71, 39, 107, 39, 99, 25, 31, 36, 0)
s = 83: (0, 21, 24, 55, 39, 100, 51, 179, 51, 45, 21, 0)
s = 84: (0, 24, 10, 65, 40, 78, 28, 180, 24, 23, 33, 0)
s = 85: (0, 12, 11, 115, 54, 100, 80, 210, 33, 59, 23, 0)
s = 86: (0, 17, 16, 98, 68, 97, 44, 120, 28, 27, 21, 0)
s = 87: (0, 32, 22, 63, 33, 73, 36, 208, 27, 33, 19, 0)
s = 88: (0, 16, 11, 43, 59, 60, 83, 172, 53, 39, 35, 0)
s = 89: (0, 25, 15, 65, 46, 135, 47, 158, 42, 44, 19, 0)
s = 90: (0, 21, 15, 98, 36, 98, 60, 246, 28, 28, 28, 0)
s = 91: (0, 15, 9, 55, 34, 77, 49, 268, 37, 20, 23, 0)
s = 92: (0, 24, 12, 101, 40, 71, 85, 138, 20, 41, 36, 0)
s = 93: (0, 35, 14, 89, 46, 95, 36, 169, 27, 24, 26, 0)
s = 94: (0, 21, 10, 83, 26, 60, 51, 210, 25, 33, 21, 0)
s = 95: (0, 10, 14, 75, 60, 76, 52, 131, 52, 31, 28, 0)
s = 96: (0, 22, 22, 81, 31, 93, 79, 184, 38, 30, 22, 0)
s = 97: (0, 19, 10, 75, 30, 76, 35, 143, 28, 19, 36, 0)
s = 98: (0, 13, 23, 59, 48, 125, 37, 223, 38, 30, 27, 0)
s = 99: (0, 16, 15, 60, 39, 78, 80, 139, 43, 33, 23, 0)
s = 100: (0, 30, 19, 89, 27, 100, 36, 209, 22, 31, 38, 0)
s = 101: (0, 30, 13, 92, 67, 106, 48, 227, 29, 23, 25, 0)
s = 102: (0, 22, 14, 48, 25, 107, 32, 137, 41, 28, 28, 0)
s = 103: (0, 11, 16, 88, 53, 68, 43, 178, 34, 34, 31, 0)
s = 104: (0, 18, 13, 61, 31, 56, 51, 211, 29, 45, 35, 0)
s = 105: (0, 13, 23, 135, 46, 79, 36, 180, 19, 28, 21, 0)
s = 106: (0, 19, 20, 44, 43, 143, 67, 124, 37, 27, 43, 0)
s = 107: (0, 23, 16, 92, 48, 93, 40, 112, 32, 20, 34, 0)
s = 108: (0, 23, 19, 95, 23, 80, 45, 132, 26, 24, 42, 0)
s = 109: (0, 12, 29, 80, 23, 100, 72, 182, 25, 25, 20, 0)
s = 110: (0, 20, 17, 76, 26, 88, 31, 131, 48, 24, 40, 0)
s = 111: (0, 13, 19, 53, 54, 83, 34, 210, 33, 23, 32, 0)
s = 112: (0, 15, 20, 105, 43, 103, 45, 197, 33, 37, 15, 0)
s = 113: (0, 28, 17, 55, 47, 79, 26, 214, 43, 28, 27, 0)
s = 114: (0, 21, 17, 78, 45, 106, 63, 119, 31, 22, 40, 0)
s = 115: (0, 21, 19, 89, 41, 98, 47, 114, 33, 40, 35, 0)
s = 116: (0, 16, 20, 60, 40, 151, 35, 204, 31, 29, 34, 0)
s = 117: (0, 20, 17, 88, 36, 128, 55, 174, 27, 43, 30, 0)
s = 118: (0, 22, 9, 39, 26, 76, 50, 245, 35, 32, 32, 0)
s = 119: (0, 15, 18, 64, 27, 90, 41, 289, 19, 25, 28, 0)
s = 120: (0, 16, 29, 52, 45, 118, 46, 101, 24, 25, 36, 0)
s = 121: (0, 13, 13, 86, 35, 136, 50, 281, 27, 47, 38, 0)
s = 122: (0, 18, 13, 77, 37, 97, 42, 251, 41, 48, 19, 0)
s = 123: (0, 14, 9, 84, 45, 110, 64, 132, 31, 23, 24, 0)
s = 124: (0, 14, 14, 58, 33, 69, 27, 261, 42, 32, 23, 0)
s = 125: (0, 10, 14, 47, 68, 72, 61, 205, 31, 27, 37, 0)
s = 126: (0, 19, 18, 64, 39, 175, 25, 137, 27, 30, 21, 0)
s = 127: (0, 18, 17, 58, 36, 135, 50, 235, 39, 34, 16, 0)
s = 128: (0, 17, 17, 69, 35, 77, 42, 151, 25, 30, 29, 0)
s = 129: (0, 20, 15, 82, 24, 88, 46, 233, 27, 45, 22, 0)
s = 130: (0, 11, 10, 48, 41, 72, 72, 165, 36, 29, 29, 0)
s = 131: (0, 16, 25, 87, 42, 117, 44, 200, 31, 34, 19, 0)
s = 132: (0, 21, 17, 77, 54, 105, 58, 133, 25, 26, 20, 0)
s = 133: (0, 21, 18, 84, 49, 80, 60, 101, 37, 19, 17, 0)
s = 134: (0, 20, 16, 52, 55, 78, 56, 89, 40, 40, 36, 0)
s = 135: (0, 11, 19, 70, 31, 83, 41, 206, 33, 50, 24, 0)
s = 136: (0, 17, 22, 122, 58, 146, 40, 166, 40, 39, 31, 0)
s = 137: (0, 21, 15, 75, 39, 136, 41, 163, 22, 21, 19, 0)
s = 138: (0, 19, 20, 42, 32, 127, 53, 215, 28, 32, 44, 0)
s = 139: (0, 19, 18, 68, 28, 112, 50, 180, 31, 32, 22, 0)
s = 140: (0, 21, 25, 88, 40, 66, 47, 204, 21, 30, 30, 0)
s = 141: (0, 14, 16, 69, 28, 64, 62, 181, 38, 22, 32, 0)
s = 142: (0, 18, 20, 50, 39, 92, 62, 170, 40, 28, 20, 0)
s = 143: (0, 14, 18, 41, 27, 121, 31, 136, 29, 22, 33, 0)
s = 144: (0, 14, 10, 72, 44, 107, 54, 162, 29, 25, 38, 0)
s = 145: (0, 13, 17, 59, 41, 125, 55, 207, 41, 34, 22, 0)
s = 146: (0, 11, 11, 50, 37, 91, 49, 176, 26, 27, 35, 0)
s = 147: (0, 14, 15, 42, 29, 67, 31, 306, 31, 26, 30, 0)
s = 148: (0, 10, 12, 92, 34, 66, 40, 196, 22, 26, 21, 0)
s = 149: (0, 14, 11, 93, 37, 62, 53, 134, 20, 19, 45, 0)
s = 150: (0, 22, 12, 69, 38, 108, 73, 196, 22, 21, 38, 0)
s = 151: (0, 16, 28, 41, 27, 113, 60, 142, 22, 31, 21, 0)
s = 152: (0, 14, 16, 71, 33, 107, 57, 144, 37, 55, 19, 0)
s = 153: (0, 22, 12, 53, 52, 89, 26, 228, 30, 54, 22, 0)
s = 154: (0, 22, 24, 56, 33, 107, 47, 203, 39, 40, 18, 0)
s = 155: (0, 14, 12, 53, 35, 120, 42, 146, 31, 21, 25, 0)
s = 156: (0, 11, 8, 61, 39, 79, 26, 127, 41, 20, 33, 0)
s = 157: (0, 25, 10, 89, 51, 68, 52, 131, 37, 24, 19, 0)
s = 158: (0, 12, 12, 108, 21, 72, 38, 108, 40, 20, 31, 0)
s = 159: (0, 16, 20, 72, 25, 98, 74, 126, 27, 40, 32, 0)
s = 160: (0, 12, 15, 54, 37, 76, 38, 89, 41, 23, 34, 0)
s = 161: (0, 12, 18, 83, 37, 130, 42, 138, 35, 40, 49, 0)
s = 162: (0, 16, 18, 65, 39, 64, 41, 143, 22, 31, 21, 0)
s = 163: (0, 22, 18, 125, 51, 61, 40, 231, 57, 19, 19, 0)
s = 164: (0, 19, 19, 64, 22, 111, 33, 173, 34, 21, 17, 0)
s = 165: (0, 14, 15, 94, 31, 63, 42, 133, 21, 26, 23, 0)
s = 166: (0, 29, 15, 58, 53, 105, 63, 203, 44, 41, 19, 0)
s = 167: (0, 19, 14, 86, 31, 70, 51, 91, 35, 37, 31, 0)
s = 168: (0, 20, 12, 67, 28, 78, 40, 144, 56, 27, 29, 0)
s = 169: (0, 17, 14, 57, 28, 126, 47, 141, 41, 32, 34, 0)
s = 170: (0, 17, 21, 90, 75, 94, 47, 131, 24, 36, 33, 0)
s = 171: (0, 21, 12, 87, 24, 91, 52, 195, 24, 44, 30, 0)
s = 172: (0, 13, 9, 115, 24, 84, 38, 251, 21, 18, 36, 0)
s = 173: (0, 21, 13, 65, 44, 80, 78, 149, 25, 48, 25, 0)
s = 174: (0, 12, 14, 42, 44, 87, 58, 133, 19, 38, 33, 0)
s = 175: (0, 15, 11, 85, 37, 64, 41, 168, 51, 26, 21, 0)
s = 176: (0, 18, 21, 89, 52, 77, 60, 213, 24, 27, 22, 0)
s = 177: (0, 12, 9, 62, 34, 70, 36, 151, 20, 26, 33, 0)
s = 178: (0, 13, 16, 50, 36, 123, 60, 170, 34, 26, 21, 0)
s = 179: (0, 17, 17, 92, 36, 89, 46, 240, 20, 55, 43, 0)
s = 180: (0, 25, 17, 73, 47, 97, 65, 210, 37, 32, 22, 0)
s = 181: (0, 14, 18, 63, 26, 109, 30, 102, 27, 25, 23, 0)
s = 182: (0, 14, 19, 69, 34, 130, 51, 152, 28, 23, 34, 0)
s = 183: (0, 14, 15, 97, 56, 126, 65, 193, 40, 53, 27, 0)
s = 184: (0, 21, 16, 118, 27, 113, 50, 96, 60, 28, 22, 0)
s = 185: (0, 20, 15, 48, 36, 74, 52, 232, 21, 51, 27, 0)
s = 186: (0, 20, 16, 50, 33, 115, 51, 226, 37, 23, 27, 0)
s = 187: (0, 13, 17, 58, 48, 164, 66, 178, 31, 24, 42, 0)
s = 188: (0, 22, 17, 91, 33, 129, 45, 159, 35, 49, 45, 0)
s = 189: (0, 14, 19, 93, 53, 82, 43, 158, 31, 34, 28, 0)
s = 190: (0, 13, 11, 84, 29, 155, 62, 284, 30, 29, 24, 0)
s = 191: (0, 18, 15, 48, 47, 128, 27, 154, 35, 41, 38, 0)
s = 192: (0, 12, 21, 57, 27, 103, 42, 137, 25, 41, 33, 0)
s = 193: (0, 24, 13, 76, 52, 118, 53, 130, 36, 37, 32, 0)
s = 194: (0, 28, 15, 73, 42, 138, 62, 198, 33, 31, 28, 0)
s = 195: (0, 19, 13, 107, 47, 75, 43, 109, 37, 19, 41, 0)
s = 196: (0, 16, 11, 115, 33, 96, 35, 96, 44, 39, 21, 0)
s = 197: (0, 11, 12, 99, 31, 62, 35, 219, 22, 32, 24, 0)
s = 198: (0, 18, 16, 52, 44, 123, 28, 233, 43, 43, 22, 0)
s = 199: (0, 22, 20, 90, 56, 57, 39, 132, 28, 47, 21, 0)
s = 200: (0, 22, 15, 61, 32, 110, 53, 225, 28, 54, 22, 0)
------------------------------------------------------------------------
RESOURCE k = 2
s = 1: (0, 10, 4, 12, 21, 28, 12, 46, 13, 16, 14, 0)
s = 2: (0, 13, 3, 15, 20, 27, 23, 85, 15, 20, 13, 0)
s = 3: (0, 12, 3, 13, 38, 24, 23, 64, 16, 12, 13, 0)
s = 4: (0, 7, 3, 12, 26, 28, 28, 72, 20, 16, 8, 0)
s = 5: (0, 11, 3, 17, 37, 20, 14, 76, 17, 16, 17, 0)
s = 6: (0, 8, 4, 13, 27, 14, 23, 52, 15, 12, 12, 0)
s = 7: (0, 10, 4, 11, 23, 20, 18, 74, 16, 11, 9, 0)
s = 8: (0, 12, 4, 11, 39, 26, 15, 53, 11, 12, 11, 0)
s = 9: (0, 13, 2, 12, 16, 27, 24, 78, 24, 9, 14, 0)
s = 10: (0, 13, 4, 13, 32, 15, 17, 36, 13, 11, 13, 0)
s = 11: (0, 12, 4, 14, 38, 22, 24, 56, 17, 9, 13, 0)
s = 12: (0, 11, 3, 11, 24, 17, 16, 56, 22, 18, 7, 0)
s = 13: (0, 10, 4, 18, 23, 27, 14, 62, 16, 16, 7, 0)
s = 14: (0, 8, 3, 11, 45, 40, 17, 58, 24, 17, 10, 0)
s = 15: (0, 10, 4, 10, 35, 34, 12, 47, 13, 17, 15, 0)
s = 16: (0, 13, 3, 12, 23, 29, 21, 68, 12, 19, 14, 0)
s = 17: (0, 9, 3, 7, 43, 26, 16, 55, 15, 14, 9, 0)
s = 18: (0, 10, 3, 19, 40, 27, 20, 58, 10, 10, 9, 0)
s = 19: (0, 10, 5, 14, 23, 19, 27, 47, 17, 12, 11, 0)
s = 20: (0, 19, 5, 11, 40, 25, 30, 38, 12, 19, 7, 0)
s = 21: (0, 9, 4, 10, 44, 36, 23, 42, 13, 18, 11, 0)
s = 22: (0, 7, 4, 10, 23, 23, 26, 62, 31, 18, 10, 0)
s = 23: (0, 8, 4, 22, 26, 41, 21, 41, 25, 9, 10, 0)
s = 24: (0, 11, 2, 13, 53, 31, 21, 95, 17, 18, 11, 0)
s = 25: (0, 12, 4, 10, 33, 26, 14, 59, 20, 13, 9, 0)
s = 26: (0, 6, 4, 7, 19, 27, 17, 59, 15, 10, 10, 0)
s = 27: (0, 14, 3, 14, 38, 15, 19, 85, 26, 9, 18, 0)
s = 28: (0, 8, 4, 11, 25, 28, 17, 37, 14, 9, 9, 0)
s = 29: (0, 9, 4, 11, 38, 16, 23, 40, 22, 12, 8, 0)
s = 30: (0, 11, 3, 10, 30, 19, 19, 67, 29, 11, 11, 0)
s = 31: (0, 15, 5, 16, 47, 18, 32, 77, 25, 13, 14, 0)
s = 32: (0, 10, 2, 14, 25, 28, 15, 73, 14, 16, 10, 0)
s = 33: (0, 9, 3, 10, 31, 20, 13, 35, 21, 14, 13, 0)
s = 34: (0, 7, 3, 18, 26, 22, 24, 44, 17, 17, 15, 0)
s = 35: (0, 8, 4, 20, 25, 22, 27, 40, 16, 11, 8, 0)
s = 36: (0, 9, 4, 14, 35, 22, 23, 52, 15, 12, 12, 0)
s = 37: (0, 8, 5, 11, 30, 17, 31, 62, 16, 14, 13, 0)
s = 38: (0, 12, 4, 10, 43, 24, 27, 80, 16, 12, 17, 0)
s = 39: (0, 10, 2, 9, 43, 24, 23, 35, 25, 19, 9, 0)
s = 40: (0, 14, 3, 13, 23, 19, 16, 45, 17, 17, 11, 0)
s = 41: (0, 13, 2, 8, 26, 26, 30, 45, 17, 15, 11, 0)
s = 42: (0, 13, 3, 12, 31, 36, 33, 40, 18, 12, 15, 0)
s = 43: (0, 11, 3, 12, 39, 31, 23, 57, 17, 14, 11, 0)
s = 44: (0, 10, 4, 9, 29, 17, 29, 48, 32, 8, 20, 0)
s = 45: (0, 7, 3, 8, 48, 22, 16, 28, 22, 12, 13, 0)
s = 46: (0, 11, 6, 9, 39, 21, 27, 60, 22, 10, 7, 0)
s = 47: (0, 10, 3, 13, 23, 21, 27, 70, 20, 12, 14, 0)
s = 48: (0, 14, 5, 10, 43, 17, 21, 63, 22, 20, 11, 0)
s = 49: (0, 7, 4, 12, 32, 33, 16, 69, 13, 16, 9, 0)
s = 50: (0, 14, 4, 13, 21, 20, 17, 61, 22, 11, 9, 0)
s = 51: (0, 11, 3, 16, 22, 20, 20, 62, 29, 18, 7, 0)
s = 52: (0, 10, 4, 20, 46, 17, 17, 47, 19, 18, 9, 0)
s = 53: (0, 8, 4, 11, 35, 18, 16, 66, 25, 14, 16, 0)
s = 54: (0, 11, 4, 14, 31, 20, 23, 68, 23, 13, 9, 0)
s = 55: (0, 12, 4, 17, 38, 24, 28, 72, 16, 12, 11, 0)
s = 56: (0, 10, 4, 7, 20, 32, 25, 50, 11, 9, 11, 0)
s = 57: (0, 9, 4, 12, 25, 25, 13, 64, 16, 18, 9, 0)
s = 58: (0, 10, 5, 22, 44, 35, 18, 67, 23, 15, 9, 0)
s = 59: (0, 10, 4, 10, 31, 22, 23, 44, 16, 8, 14, 0)
s = 60: (0, 9, 4, 18, 39, 27, 15, 39, 22, 10, 19, 0)
s = 61: (0, 9, 2, 11, 27, 26, 28, 41, 15, 21, 9, 0)
s = 62: (0, 7, 5, 16, 26, 28, 35, 36, 24, 15, 11, 0)
s = 63: (0, 8, 3, 9, 21, 16, 19, 32, 30, 9, 11, 0)
s = 64: (0, 17, 2, 18, 33, 30, 26, 55, 25, 12, 20, 0)
s = 65: (0, 7, 3, 13, 18, 41, 19, 53, 27, 11, 9, 0)
s = 66: (0, 9, 3, 12, 34, 44, 19, 58, 20, 15, 9, 0)
s = 67: (0, 8, 4, 20, 24, 26, 20, 33, 20, 13, 10, 0)
s = 68: (0, 10, 4, 20, 26, 27, 25, 49, 18, 13, 22, 0)
s = 69: (0, 10, 5, 8, 35, 27, 25, 49, 22, 9, 15, 0)
s = 70: (0, 7, 5, 15, 27, 28, 13, 56, 21, 17, 14, 0)
s = 71: (0, 16, 5, 13, 32, 20, 27, 89, 17, 11, 11, 0)
s = 72: (0, 15, 3, 12, 23, 39, 30, 83, 16, 12, 9, 0)
s = 73: (0, 12, 5, 8, 33, 18, 22, 72, 15, 21, 19, 0)
s = 74: (0, 13, 4, 13, 25, 15, 18, 86, 12, 17, 15, 0)
s = 75: (0, 11, 3, 13, 29, 19, 17, 82, 15, 10, 14, 0)
s = 76: (0, 10, 5, 8, 26, 22, 13, 40, 13, 22, 8, 0)
s = 77: (0, 8, 3, 10, 24, 28, 22, 68, 18, 12, 11, 0)
s = 78: (0, 8, 5, 17, 42, 20, 15, 79, 24, 13, 17, 0)
s = 79: (0, 8, 3, 15, 26, 21, 15, 44, 20, 21, 13, 0)
s = 80: (0, 9, 3, 12, 29, 26, 17, 54, 16, 18, 9, 0)
s = 81: (0, 7, 4, 10, 29, 27, 19, 80, 17, 23, 10, 0)
s = 82: (0, 11, 3, 12, 30, 27, 17, 33, 14, 14, 16, 0)
s = 83: (0, 12, 5, 10, 30, 25, 22, 60, 29, 20, 9, 0)
s = 84: (0, 13, 2, 11, 31, 20, 13, 60, 14, 10, 14, 0)
s = 85: (0, 7, 3, 20, 42, 25, 35, 70, 19, 26, 10, 0)
s = 86: (0, 10, 4, 17, 53, 25, 19, 40, 16, 12, 9, 0)
s = 87: (0, 18, 5, 11, 25, 19, 16, 70, 15, 15, 9, 0)
s = 88: (0, 9, 3, 8, 46, 15, 37, 58, 30, 17, 15, 0)
s = 89: (0, 14, 3, 11, 35, 34, 21, 53, 24, 20, 9, 0)
s = 90: (0, 12, 3, 17, 28, 25, 27, 82, 16, 13, 12, 0)
s = 91: (0, 8, 2, 10, 26, 20, 22, 90, 21, 9, 10, 0)
s = 92: (0, 14, 3, 17, 31, 18, 37, 46, 12, 18, 16, 0)
s = 93: (0, 20, 3, 15, 35, 24, 16, 57, 15, 11, 12, 0)
s = 94: (0, 12, 2, 14, 20, 15, 22, 70, 14, 15, 9, 0)
s = 95: (0, 6, 3, 13, 46, 19, 23, 44, 29, 14, 12, 0)
s = 96: (0, 13, 5, 14, 24, 24, 35, 62, 22, 14, 10, 0)
s = 97: (0, 11, 2, 13, 23, 19, 16, 48, 16, 9, 16, 0)
s = 98: (0, 8, 5, 10, 37, 32, 17, 75, 22, 13, 12, 0)
s = 99: (0, 9, 3, 10, 30, 20, 35, 47, 24, 15, 10, 0)
s = 100: (0, 17, 4, 15, 21, 25, 16, 70, 13, 14, 17, 0)
s = 101: (0, 17, 3, 16, 52, 27, 21, 76, 16, 10, 11, 0)
s = 102: (0, 12, 3, 8, 19, 27, 14, 46, 24, 12, 12, 0)
s = 103: (0, 7, 4, 15, 41, 17, 19, 60, 19, 15, 13, 0)
s = 104: (0, 10, 3, 11, 24, 14, 23, 71, 17, 20, 15, 0)
s = 105: (0, 7, 5, 23, 35, 20, 16, 60, 11, 12, 9, 0)
s = 106: (0, 11, 4, 8, 33, 36, 30, 42, 21, 12, 19, 0)
s = 107: (0, 13, 4, 16, 37, 24, 18, 38, 18, 9, 15, 0)
s = 108: (0, 13, 4, 16, 18, 20, 20, 44, 15, 11, 18, 0)
s = 109: (0, 7, 6, 14, 17, 25, 32, 61, 14, 11, 9, 0)
s = 110: (0, 11, 4, 13, 20, 22, 14, 44, 27, 11, 17, 0)
s = 111: (0, 7, 4, 9, 41, 21, 15, 70, 19, 10, 14, 0)
s = 112: (0, 8, 4, 18, 33, 26, 20, 66, 19, 17, 7, 0)
s = 113: (0, 16, 4, 10, 36, 20, 12, 72, 25, 13, 12, 0)
s = 114: (0, 12, 4, 13, 35, 27, 28, 40, 18, 10, 18, 0)
s = 115: (0, 12, 4, 15, 32, 25, 21, 38, 19, 18, 15, 0)
s = 116: (0, 9, 4, 10, 31, 38, 16, 68, 18, 13, 15, 0)
s = 117: (0, 12, 4, 15, 28, 32, 24, 58, 16, 19, 13, 0)
s = 118: (0, 13, 2, 7, 20, 19, 22, 82, 20, 14, 14, 0)
s = 119: (0, 9, 4, 11, 21, 23, 18, 97, 11, 11, 12, 0)
s = 120: (0, 9, 6, 9, 34, 30, 20, 34, 14, 11, 16, 0)
s = 121: (0, 8, 3, 15, 27, 34, 22, 94, 15, 21, 17, 0)
s = 122: (0, 10, 3, 13, 29, 25, 19, 84, 23, 21, 9, 0)
s = 123: (0, 8, 2, 14, 35, 28, 28, 44, 18, 10, 11, 0)
s = 124: (0, 8, 3, 10, 26, 18, 12, 87, 24, 14, 10, 0)
s = 125: (0, 6, 3, 8, 52, 18, 27, 69, 18, 12, 16, 0)
s = 126: (0, 11, 4, 11, 30, 44, 11, 46, 15, 13, 9, 0)
s = 127: (0, 10, 4, 10, 28, 34, 22, 79, 22, 15, 7, 0)
s = 128: (0, 9, 4, 12, 27, 20, 19, 51, 14, 13, 13, 0)
s = 129: (0, 11, 3, 14, 19, 22, 20, 78, 15, 20, 10, 0)
s = 130: (0, 6, 2, 8, 32, 18, 32, 55, 21, 13, 13, 0)
s = 131: (0, 9, 5, 15, 33, 30, 20, 67, 17, 15, 9, 0)
s = 132: (0, 12, 4, 13, 42, 27, 25, 45, 14, 12, 9, 0)
s = 133: (0, 12, 4, 14, 38, 20, 27, 34, 21, 8, 7, 0)
s = 134: (0, 11, 4, 9, 42, 20, 25, 30, 23, 18, 16, 0)
s = 135: (0, 6, 4, 12, 24, 21, 18, 69, 19, 22, 11, 0)
s = 136: (0, 10, 5, 21, 45, 37, 18, 56, 23, 17, 14, 0)
s = 137: (0, 12, 3, 13, 30, 34, 18, 55, 13, 10, 9, 0)
s = 138: (0, 11, 4, 7, 25, 32, 23, 72, 16, 14, 19, 0)
s = 139: (0, 11, 4, 12, 22, 28, 22, 60, 17, 14, 10, 0)
s = 140: (0, 12, 5, 15, 31, 17, 21, 68, 12, 14, 13, 0)
s = 141: (0, 8, 4, 12, 22, 16, 27, 61, 21, 10, 14, 0)
s = 142: (0, 10, 4, 9, 30, 23, 27, 57, 23, 12, 9, 0)
s = 143: (0, 8, 4, 7, 21, 31, 14, 46, 16, 10, 14, 0)
s = 144: (0, 8, 2, 12, 34, 27, 24, 54, 16, 11, 16, 0)
s = 145: (0, 8, 4, 10, 32, 32, 24, 69, 23, 15, 10, 0)
s = 146: (0, 6, 3, 9, 28, 23, 22, 59, 15, 12, 15, 0)
s = 147: (0, 8, 3, 7, 22, 17, 14, 102, 18, 12, 13, 0)
s = 148: (0, 6, 3, 16, 26, 17, 18, 66, 13, 12, 9, 0)
s = 149: (0, 8, 3, 16, 29, 16, 24, 45, 11, 9, 20, 0)
s = 150: (0, 12, 3, 12, 29, 27, 32, 66, 13, 10, 16, 0)
s = 151: (0, 9, 6, 7, 21, 29, 27, 48, 13, 14, 9, 0)
s = 152: (0, 8, 4, 12, 25, 27, 25, 48, 21, 24, 9, 0)
s = 153: (0, 12, 3, 9, 40, 23, 12, 76, 17, 24, 10, 0)
s = 154: (0, 12, 5, 10, 26, 27, 21, 68, 22, 18, 8, 0)
s = 155: (0, 8, 3, 9, 27, 30, 19, 49, 18, 9, 11, 0)
s = 156: (0, 6, 2, 11, 30, 20, 12, 43, 23, 9, 14, 0)
s = 157: (0, 14, 2, 15, 39, 17, 23, 44, 21, 11, 8, 0)
s = 158: (0, 7, 3, 18, 16, 18, 17, 36, 23, 9, 14, 0)
s = 159: (0, 9, 4, 12, 19, 25, 32, 42, 15, 18, 14, 0)
s = 160: (0, 7, 3, 9, 29, 19, 17, 30, 24, 10, 15, 0)
s = 161: (0, 7, 4, 14, 29, 33, 19, 46, 20, 18, 21, 0)
s = 162: (0, 9, 4, 11, 30, 16, 18, 48, 13, 14, 9, 0)
s = 163: (0, 12, 4, 21, 39, 16, 18, 77, 32, 9, 8, 0)
s = 164: (0, 11, 4, 11, 17, 28, 15, 58, 19, 10, 8, 0)
s = 165: (0, 8, 3, 16, 24, 16, 19, 45, 12, 12, 10, 0)
s = 166: (0, 16, 3, 10, 41, 27, 28, 68, 25, 18, 9, 0)
s = 167: (0, 11, 3, 15, 24, 18, 23, 31, 20, 16, 14, 0)
s = 168: (0, 12, 3, 12, 22, 20, 18, 48, 32, 12, 13, 0)
s = 169: (0, 9, 3, 10, 22, 32, 21, 47, 23, 14, 15, 0)
s = 170: (0, 10, 5, 15, 58, 24, 21, 44, 14, 16, 15, 0)
s = 171: (0, 12, 3, 15, 19, 23, 23, 65, 14, 19, 13, 0)
s = 172: (0, 7, 2, 20, 19, 21, 17, 84, 12, 8, 16, 0)
s = 173: (0, 12, 3, 11, 34, 20, 34, 50, 14, 21, 11, 0)
s = 174: (0, 7, 3, 7, 34, 22, 25, 45, 11, 17, 15, 0)
s = 175: (0, 9, 3, 15, 29, 16, 18, 56, 29, 12, 9, 0)
s = 176: (0, 10, 5, 15, 40, 20, 27, 71, 14, 12, 10, 0)
s = 177: (0, 7, 2, 11, 26, 18, 16, 51, 12, 12, 15, 0)
s = 178: (0, 7, 4, 9, 28, 31, 26, 57, 20, 12, 9, 0)
s = 179: (0, 10, 4, 16, 28, 23, 21, 80, 12, 25, 19, 0)
s = 180: (0, 14, 4, 13, 37, 25, 29, 70, 21, 14, 10, 0)
s = 181: (0, 8, 4, 11, 20, 28, 13, 34, 15, 11, 10, 0)
s = 182: (0, 8, 4, 12, 26, 33, 23, 51, 16, 11, 15, 0)
s = 183: (0, 8, 3, 17, 43, 32, 29, 65, 23, 23, 12, 0)
s = 184: (0, 12, 4, 20, 21, 29, 22, 32, 34, 13, 10, 0)
s = 185: (0, 11, 3, 8, 28, 19, 23, 78, 12, 22, 12, 0)
s = 186: (0, 11, 4, 9, 25, 29, 23, 76, 21, 10, 12, 0)
s = 187: (0, 7, 4, 10, 37, 41, 29, 60, 18, 11, 18, 0)
s = 188: (0, 12, 4, 16, 25, 33, 20, 53, 20, 22, 20, 0)
s = 189: (0, 8, 4, 16, 41, 21, 19, 53, 18, 15, 12, 0)
s = 190: (0, 7, 3, 14, 22, 39, 27, 95, 17, 13, 11, 0)
s = 191: (0, 10, 3, 8, 36, 32, 12, 52, 20, 18, 16, 0)
s = 192: (0, 7, 5, 10, 21, 26, 19, 46, 14, 18, 14, 0)
s = 193: (0, 14, 3, 13, 40, 30, 24, 44, 21, 17, 14, 0)
s = 194: (0, 16, 3, 13, 32, 35, 27, 66, 19, 14, 12, 0)
s = 195: (0, 11, 3, 18, 36, 19, 19, 37, 21, 9, 18, 0)
s = 196: (0, 9, 3, 20, 25, 24, 16, 32, 25, 17, 9, 0)
s = 197: (0, 7, 3, 17, 24, 16, 16, 73, 13, 14, 10, 0)
s = 198: (0, 10, 4, 9, 34, 31, 13, 78, 24, 19, 10, 0)
s = 199: (0, 12, 4, 15, 43, 15, 17, 44, 16, 21, 9, 0)
s = 200: (0, 12, 3, 11, 24, 28, 24, 75, 16, 24, 10, 0)
************************************************************************
ES/LS-VALUES:
jobnr.   ES(i)    LS(i)
------------------------------------------------------------------------
  0        0        0
  1        0       61
  2        0       61
  3        0       51
  4        2       63
  5       11       71
  6       11       63
  7       16       69
  8       11       86
  9       25       86
 10       33       86
 11       36       90
************************************************************************
BIG-M-VALUES:
M1 = 65, M2 = 408
************************************************************************
